1	4	9	15	8	
1	4	2	11	20	34	41	57	82	90	111	133	141	169	199	204	194	182	168	166	161	177	203	197	179	
3	13	21	25	30	34	41	57	82	90	111	133	141	169	199	204	209	219	225	245	246	255	271	276	284	289	295	308	325	353	366	382	404	480	565	580	592	604	632	652	657	679	668	661	653	638	630	618	611	589	563	544	535	518	489	454	477	495	504	517	516	540	554	570	579	599	590	581	
7	18	11	20	34	41	57	82	90	111	133	141	169	199	204	209	219	225	245	246	247	231	228	211	201	187	189	193	192	188	184	176	170	164	143	131	114	94	
7	18	11	20	34	41	57	82	90	111	133	141	169	199	204	209	219	225	245	246	255	271	276	284	289	295	308	325	353	366	382	404	395	304	260	242	237	230	212	
7	18	11	20	34	41	57	82	90	111	133	141	169	199	204	209	219	225	245	246	255	271	276	284	289	295	308	325	353	366	382	404	480	565	580	592	604	632	652	657	679	668	661	653	638	630	618	611	589	563	544	535	518	489	454	450	440	431	415	410	400	393	378	369	362	336	334	341	346	358	356	
8	15	9	4	2	11	20	34	30	25	21	13	10	5	6	14	19	12	
8	15	28	26	50	
8	15	9	4	2	11	20	34	41	57	82	90	111	133	141	169	199	204	209	219	225	245	246	255	271	276	284	289	295	308	325	353	366	382	404	480	565	580	592	604	632	652	657	679	668	661	653	638	630	618	611	589	563	544	535	518	489	454	477	495	504	517	516	540	554	570	579	599	624	628	623	616	
17	20	34	41	57	82	90	111	133	141	169	199	204	209	219	225	245	246	255	271	276	284	289	295	302	320	335	359	363	
22	26	28	15	9	4	2	11	20	34	41	57	82	90	111	96	84	72	48	52	
23	33	36	37	35	45	58	53	49	68	60	57	82	90	111	133	141	169	199	204	209	219	225	245	246	247	250	253	257	258	
23	33	36	37	35	45	58	53	49	68	60	57	82	90	111	133	141	169	199	204	209	219	225	245	246	255	271	276	284	289	295	308	319	316	
23	33	36	37	35	45	58	53	49	68	60	57	82	90	111	133	141	169	199	204	209	219	225	245	246	255	271	276	284	289	295	302	320	335	359	363	
24	25	30	34	41	57	82	90	111	133	141	169	199	204	209	219	225	245	246	247	231	228	211	201	187	189	193	192	188	184	176	170	190	185	173	160	
24	25	30	34	41	57	82	90	111	133	141	169	199	204	209	219	225	245	246	255	271	276	277	278	279	261	
24	25	30	34	41	57	82	90	111	133	141	169	199	204	209	219	225	245	246	255	271	276	284	289	295	308	325	353	366	382	404	480	565	580	592	604	632	652	657	679	668	661	653	638	630	618	611	589	563	544	535	518	489	454	477	495	504	517	516	540	554	570	558	552	538	529	528	520	501	488	502	526	575	582	593	588	587	
27	49	68	60	57	82	90	111	133	141	169	199	204	209	219	225	245	246	255	271	276	284	289	295	308	325	353	366	382	404	395	304	317	287	
29	45	58	53	49	68	60	57	82	90	111	133	141	169	199	204	209	219	225	245	246	247	231	228	211	201	187	189	193	192	188	184	176	170	164	143	131	118	
29	45	58	53	49	68	60	57	82	90	111	133	141	169	199	204	194	182	168	166	161	152	174	
29	45	58	53	49	68	60	57	82	90	111	133	141	169	199	204	209	219	225	245	246	255	271	276	284	289	295	308	325	353	366	382	404	480	565	580	592	604	632	652	657	679	668	661	653	638	630	618	611	589	563	544	535	518	489	454	450	440	431	415	410	423	430	
29	45	58	53	49	68	60	57	82	90	111	133	141	169	199	204	209	219	225	245	246	255	271	276	284	289	295	308	325	353	366	382	404	480	565	580	592	604	632	652	657	679	668	661	653	638	630	618	611	589	563	544	535	518	489	454	477	495	504	517	516	540	554	570	558	552	538	529	528	520	501	488	502	526	508	484	474	473	487	479	466	
29	45	58	53	49	68	60	57	82	90	111	133	141	169	199	204	209	219	225	245	246	255	271	276	284	289	295	308	325	353	366	382	404	480	565	580	572	
43	46	55	61	75	78	84	96	111	133	141	169	199	204	209	219	225	245	246	255	271	276	284	289	295	308	325	353	366	382	404	480	565	580	592	604	632	652	657	679	668	661	656	
44	48	72	84	96	111	133	141	169	199	204	209	219	225	245	246	247	231	228	211	201	187	189	193	192	162	130	105	106	110	126	150	149	154	
50	26	28	15	9	4	2	11	20	34	41	57	82	90	111	133	141	169	199	204	209	219	225	245	246	247	250	253	257	270	274	291	306	
50	26	28	15	9	4	2	11	20	34	41	57	82	90	111	133	141	169	199	204	209	219	225	245	246	255	271	276	284	289	295	308	325	353	360	387	403	389	411	414	435	453	471	499	513	524	546	553	
51	38	9	4	2	11	20	34	41	57	82	86	
52	48	72	84	96	111	133	141	169	199	204	209	219	225	245	246	247	250	253	257	270	274	291	306	
54	56	78	84	96	111	133	141	169	199	204	209	219	225	245	246	255	271	276	284	289	295	308	325	353	366	382	404	480	565	580	592	604	632	652	657	679	668	661	653	638	630	618	611	589	563	544	535	518	489	454	450	440	431	415	410	400	393	378	369	362	336	334	322	311	301	296	290	286	272	267	252	240	227	
59	61	75	78	84	96	111	133	141	169	199	204	194	182	168	166	161	152	174	
59	61	75	78	84	96	111	133	141	169	199	204	209	219	225	245	246	255	271	276	284	289	295	308	325	353	366	382	404	395	304	269	244	
69	62	63	64	65	66	67	95	105	130	162	192	193	189	187	201	211	228	231	247	246	255	271	276	284	289	295	308	325	353	366	382	418	406	
69	62	63	64	65	66	67	95	105	130	162	192	193	189	187	201	211	228	231	247	246	255	271	276	284	289	295	308	325	353	366	382	404	480	565	580	592	604	632	652	657	679	668	661	653	638	630	618	611	589	563	544	535	518	489	454	477	495	504	517	516	540	554	570	558	552	547	556	
76	80	89	93	110	106	105	130	162	192	193	189	187	201	211	228	231	247	246	255	271	276	284	289	295	308	319	338	348	367	
77	91	92	106	105	130	162	192	193	189	187	201	211	228	231	247	246	255	271	276	284	289	295	308	325	353	366	382	404	480	565	580	572	
81	71	42	62	63	64	65	66	67	95	105	130	162	192	193	189	187	201	211	228	231	247	246	255	271	276	284	289	295	308	325	353	366	382	404	395	304	260	242	226	224	221	
81	71	42	62	63	64	65	66	67	95	105	130	162	192	193	189	187	201	211	228	231	247	250	253	257	270	274	291	306	
83	90	111	133	141	169	199	204	209	219	225	245	246	255	271	276	284	289	295	308	325	353	366	382	404	395	304	260	243	232	202	186	175	167	157	137	124	
83	90	111	133	141	169	199	204	209	219	225	245	246	255	271	276	277	278	279	261	
83	90	111	133	141	169	199	204	209	219	225	245	246	255	271	276	284	289	295	308	325	353	366	382	404	480	565	580	592	604	632	652	657	679	668	661	653	638	630	618	611	589	563	544	535	518	489	454	477	495	504	517	516	540	554	570	558	552	538	529	528	520	494	
83	90	111	133	141	169	199	204	209	219	225	245	246	255	271	276	284	289	295	308	325	353	366	382	404	480	565	580	592	604	632	652	657	679	668	661	653	638	630	618	611	589	563	544	535	518	489	454	477	495	504	517	516	540	554	570	579	599	624	628	623	616	
85	108	115	119	136	161	166	168	182	194	204	199	206	222	
86	82	90	111	133	141	169	199	204	209	219	225	245	246	255	271	276	284	289	295	308	319	316	
94	114	131	143	164	170	176	184	188	192	162	130	105	106	110	126	129	125	
94	114	131	143	164	170	176	184	188	192	193	189	187	201	211	228	231	247	246	255	271	276	284	289	295	308	325	353	366	382	404	480	565	580	592	604	632	652	657	679	668	661	653	638	630	618	611	589	559	
97	88	103	120	148	187	201	211	228	231	247	246	245	225	219	209	204	199	169	141	133	144	
98	104	119	136	161	166	168	182	194	204	209	219	225	245	246	255	271	276	284	289	295	308	325	353	366	382	404	395	304	260	242	237	230	212	
98	104	119	136	161	166	168	182	194	204	209	219	225	245	246	255	271	276	284	289	295	308	325	353	366	382	404	480	565	580	592	604	632	652	657	679	668	661	653	638	630	618	611	589	563	544	535	518	489	454	450	440	431	415	410	400	393	378	392	397	391	385	
99	79	75	78	84	96	111	133	141	169	199	204	194	182	205	
99	79	75	78	84	96	111	133	141	169	199	204	209	219	225	245	246	255	271	276	284	289	295	308	325	353	366	382	404	480	565	580	592	604	632	652	657	679	668	661	653	642	633	627	620	584	571	562	542	521	496	475	
100	90	111	133	141	169	199	204	209	219	225	245	246	255	271	276	284	289	295	308	325	353	366	382	404	480	565	580	592	604	632	652	657	679	668	661	653	638	630	618	611	589	563	544	535	518	489	454	450	440	431	415	410	400	393	398	394	379	
100	90	111	133	141	169	199	204	209	219	225	245	246	255	271	276	284	289	295	308	325	353	360	387	403	389	411	414	435	453	471	499	513	524	546	557	564	576	606	625	621	612	607	
101	87	93	110	106	105	130	162	192	193	189	187	201	211	228	231	247	250	253	257	258	
102	108	115	119	136	161	166	168	182	194	204	209	219	225	245	246	255	271	276	284	289	295	308	325	353	366	382	404	480	565	580	592	604	632	652	657	679	668	661	653	642	633	627	620	584	571	562	542	549	
107	93	110	106	105	130	162	192	193	189	187	201	211	228	231	247	246	255	271	276	284	289	295	308	325	353	366	382	404	395	304	260	243	232	202	186	163	134	
107	93	110	106	105	130	162	192	193	189	187	201	211	228	231	247	246	255	271	276	284	289	295	308	325	353	366	382	404	395	304	260	243	232	202	186	175	167	157	137	155	171	
107	93	110	106	105	130	162	192	193	189	187	201	211	228	231	247	246	255	271	276	284	289	295	308	325	353	366	382	404	480	565	605	
109	103	120	148	187	201	211	228	231	247	246	255	271	276	284	289	295	308	325	353	366	382	404	480	565	580	592	604	632	652	657	679	668	661	653	638	630	618	611	589	563	544	535	518	489	454	450	440	431	415	410	400	393	378	369	362	336	334	322	311	301	296	290	286	272	267	254	256	
112	113	122	126	110	106	105	130	162	192	193	189	187	201	211	228	231	247	246	255	271	276	284	289	295	308	325	353	366	382	404	480	565	580	592	604	632	652	657	679	668	661	653	638	630	618	611	589	563	544	535	518	489	454	477	495	504	517	516	540	554	570	558	552	538	529	528	520	501	488	502	526	575	651	
116	120	148	187	189	193	192	188	184	176	170	190	185	173	160	
116	120	148	187	201	211	228	231	247	246	255	271	276	284	289	295	308	325	353	366	382	404	480	565	580	592	604	632	652	657	679	668	661	653	638	630	618	611	589	563	544	535	518	489	454	450	440	431	415	410	400	393	378	369	362	336	334	341	346	329	337	355	326	
117	138	128	119	136	161	166	168	182	194	204	209	219	225	245	246	255	271	276	284	289	295	308	325	353	366	382	404	395	304	260	242	237	230	212	
117	138	128	119	136	161	166	168	182	194	204	209	219	225	245	246	255	271	276	284	289	295	308	325	353	366	382	404	480	565	580	592	604	632	652	657	679	668	661	653	642	633	627	620	584	571	562	542	549	
118	131	143	164	170	176	184	188	192	193	189	187	201	211	228	231	247	246	255	271	276	284	289	295	308	325	353	360	374	376	
121	136	161	166	168	182	194	204	209	219	225	245	246	255	271	276	284	289	295	308	325	353	366	382	404	480	565	580	592	604	632	652	657	679	668	661	653	638	630	618	611	589	563	544	535	518	489	454	477	495	504	517	516	540	554	570	558	552	538	529	528	520	501	512	522	527	533	543	550	
121	136	161	166	168	182	194	204	209	219	225	245	246	255	271	276	284	289	295	308	325	353	366	382	404	480	565	580	592	604	632	652	657	679	668	661	653	638	630	618	611	589	563	544	535	518	489	454	477	495	504	517	516	540	554	570	558	552	547	556	
123	132	139	152	161	166	168	182	194	204	209	219	225	245	246	247	231	228	211	201	187	189	193	192	162	130	105	106	110	126	150	149	154	
123	132	139	152	161	166	168	182	194	204	209	219	225	245	246	255	271	276	284	289	295	308	325	353	366	382	404	480	565	580	592	604	632	652	657	679	668	661	653	638	630	618	611	589	563	544	535	518	489	454	477	472	469	448	
124	137	157	167	175	186	202	232	243	260	304	395	404	382	366	353	360	387	403	424	441	447	
124	137	157	167	175	186	202	232	243	260	304	395	404	382	366	353	360	387	403	389	411	414	435	453	471	499	513	524	546	557	564	576	606	625	621	612	607	
125	129	126	110	106	105	130	162	192	193	189	187	201	211	228	231	247	246	255	271	276	284	289	295	308	325	353	360	387	403	389	411	414	435	453	471	499	513	524	546	557	566	
127	120	148	187	201	211	228	231	247	246	255	271	276	284	289	295	308	325	353	366	382	404	480	565	574	568	585	
134	163	186	202	232	243	260	242	237	230	212	
134	163	186	202	232	243	260	304	395	404	480	565	580	592	604	632	652	657	679	668	661	653	642	633	627	620	584	571	562	542	521	510	498	503	
142	155	137	157	167	175	186	202	232	243	260	304	395	404	480	565	580	592	604	632	652	657	679	668	661	653	638	630	618	611	589	563	544	535	518	489	454	450	440	431	415	410	400	393	378	369	362	336	334	322	311	301	296	290	286	285	283	
146	140	131	143	164	170	176	184	188	192	193	189	187	201	211	228	231	247	246	255	271	276	284	289	295	308	325	353	366	382	404	395	304	269	292	
146	140	131	143	164	170	176	184	188	192	193	189	187	201	211	228	231	247	246	255	271	276	284	289	295	308	325	353	360	387	403	389	411	414	435	453	471	499	513	524	546	553	
147	136	161	166	168	182	194	204	209	219	225	245	246	255	271	276	284	289	295	308	325	353	366	382	404	480	565	580	592	604	632	652	657	679	668	661	653	638	630	618	611	589	563	544	535	518	489	454	450	440	431	415	410	400	393	398	416	425	446	451	439	449	470	481	493	
151	138	128	119	136	161	166	168	182	194	204	209	219	225	245	246	255	271	276	277	297	298	
153	145	138	128	119	136	161	166	168	182	194	204	209	219	225	245	246	255	271	276	284	289	295	308	325	353	366	382	404	395	304	260	243	232	208	198	195	183	172	
156	148	187	201	211	228	231	247	246	255	271	276	284	289	295	302	320	335	359	388	390	
158	162	192	193	189	187	201	211	228	231	247	246	255	271	276	284	289	295	308	325	353	366	382	404	480	565	580	592	604	632	652	657	679	668	661	653	638	630	618	611	608	
159	164	170	176	184	188	192	193	189	187	201	211	228	231	247	246	255	271	276	284	289	295	308	325	353	366	382	404	480	565	580	592	604	632	652	657	679	668	661	653	638	630	618	611	589	563	544	535	518	489	454	477	495	504	517	516	540	554	570	579	599	590	578	609	
165	132	139	152	161	166	168	182	194	204	209	219	225	245	246	255	271	276	284	289	295	308	325	353	366	382	404	480	565	580	592	604	632	652	657	679	668	661	656	
165	132	139	152	161	166	168	182	194	204	209	219	225	245	246	255	271	276	284	289	295	308	325	353	366	382	404	480	565	580	592	604	632	652	671	
171	155	137	157	167	175	186	202	232	243	260	304	395	404	382	366	353	325	308	295	289	284	276	271	255	246	245	225	219	209	204	199	206	222	
171	155	137	157	167	175	186	202	232	243	260	304	395	404	382	366	353	325	308	295	289	284	276	277	297	298	
172	183	195	198	208	232	243	260	304	395	404	480	565	580	592	604	632	652	657	679	668	661	653	638	630	618	611	589	563	544	535	518	489	454	450	440	431	415	410	400	393	378	369	362	336	334	322	311	301	300	299	
172	183	195	198	208	232	243	260	304	395	404	480	565	580	592	604	632	652	657	679	668	661	653	638	630	618	611	589	563	544	535	518	489	454	477	495	504	517	516	540	554	570	558	552	538	529	528	520	501	488	502	526	575	651	
174	152	161	166	168	182	194	204	209	219	225	245	246	255	271	276	284	289	295	308	325	353	366	382	404	480	565	580	592	604	632	652	657	679	668	661	653	638	630	618	611	589	563	544	535	518	489	454	477	495	504	517	516	540	554	570	558	552	538	529	528	520	501	488	502	526	555	591	654	662	688	675	663	641	629	648	643	636	646	667	670	673	664	
178	187	201	211	228	231	247	246	245	225	219	209	204	194	182	168	166	161	177	203	197	179	
178	187	201	211	228	231	247	246	255	271	276	284	289	295	308	325	353	366	382	404	395	375	
179	197	203	177	161	166	168	182	194	204	209	219	225	245	238	241	236	
179	197	203	177	161	166	168	182	194	204	209	219	225	245	246	247	250	253	257	270	274	291	306	
179	197	203	177	161	166	168	182	194	204	209	219	225	245	246	255	271	276	284	289	295	308	325	353	366	382	404	395	375	
181	161	166	168	182	194	204	209	219	225	245	246	255	271	276	284	289	295	302	320	312	294	
196	210	220	223	230	237	242	260	304	395	404	480	565	574	568	585	
207	195	198	208	232	243	260	304	395	404	382	366	353	325	308	295	289	284	276	277	278	279	280	
207	195	198	208	232	243	260	304	395	404	382	366	353	360	387	403	389	383	380	368	357	344	343	340	
207	195	198	208	232	243	260	304	395	404	480	565	580	592	604	632	652	657	679	668	661	653	638	630	618	611	589	563	544	535	518	489	454	450	440	431	415	410	400	393	398	416	425	446	451	464	497	509	500	
212	230	237	242	239	235	234	
214	198	208	232	243	260	304	395	404	382	366	353	360	387	403	424	441	447	
216	191	180	167	175	186	202	232	243	260	242	239	235	234	
216	191	180	167	175	186	202	232	243	260	304	395	404	480	565	580	592	604	632	652	657	679	668	661	653	638	630	618	611	589	563	544	535	518	489	454	450	440	431	415	410	400	393	378	369	362	336	334	322	311	301	296	290	286	272	267	252	240	249	
216	191	180	167	175	186	202	232	243	260	304	395	404	480	565	580	592	604	632	652	657	679	668	661	653	638	630	618	611	589	563	544	535	518	489	454	477	495	504	517	516	540	554	570	558	552	538	529	528	520	501	488	502	526	555	591	654	662	688	675	663	641	629	648	643	636	646	659	672	674	680	695	691	697	711	719	
217	240	252	267	272	286	290	296	301	311	322	334	336	362	369	378	393	400	410	415	431	440	450	454	489	518	535	544	563	589	611	618	630	638	653	661	668	679	657	652	632	604	592	580	565	480	404	382	366	353	325	308	295	289	284	276	271	255	246	247	231	229	
217	240	252	267	272	286	290	296	301	311	322	334	336	362	369	378	393	400	410	415	431	440	450	454	477	472	469	448	
217	240	252	267	272	286	290	296	301	311	322	334	336	362	369	378	393	400	410	415	431	440	450	454	477	495	504	517	516	540	554	570	558	552	538	529	528	520	501	488	502	526	508	484	474	473	487	479	466	
218	215	213	233	250	247	246	255	271	276	284	289	295	308	325	353	366	382	404	480	565	580	592	604	632	652	657	679	668	661	653	638	630	618	611	589	563	544	535	518	489	454	450	440	431	415	410	400	393	378	392	397	401	409	412	417	421	
221	224	226	242	260	304	395	404	480	565	580	592	604	632	652	657	679	668	661	653	638	630	618	611	589	563	544	535	518	489	454	450	440	431	415	410	400	393	398	416	425	446	451	439	449	470	481	493	
221	224	226	242	260	304	395	404	480	565	580	592	604	632	652	657	679	668	661	653	638	630	618	611	589	563	544	535	518	489	454	477	495	504	517	516	540	554	570	577	595	601	603	600	
221	224	226	242	260	304	395	404	480	565	580	592	604	632	652	657	679	668	661	653	638	630	618	611	589	563	544	535	518	489	454	477	495	504	517	516	540	554	570	558	552	538	529	528	520	501	488	502	526	555	591	654	662	688	693	682	
227	240	252	267	272	286	290	296	301	311	322	334	336	362	369	378	393	398	416	425	446	451	439	434	427	420	405	
234	235	239	242	260	304	395	404	382	366	353	360	387	403	389	383	380	368	357	344	332	333	
234	235	239	242	260	304	395	375	
236	241	238	245	246	255	271	262	273	
251	241	238	245	246	255	271	276	284	289	295	308	325	353	366	382	404	480	565	580	592	604	632	652	657	679	668	661	653	638	630	618	611	608	
258	257	253	250	247	246	255	271	276	284	289	295	308	325	353	360	387	403	389	383	380	368	357	344	343	340	
261	279	278	277	276	284	289	295	308	325	353	366	382	404	480	565	580	592	604	632	652	657	679	683	689	694	696	707	715	714	710	718	
264	269	304	395	404	480	565	580	592	604	632	652	657	679	683	689	694	696	707	715	714	710	718	
265	270	257	253	250	247	246	255	271	276	284	289	295	308	325	353	366	382	404	480	565	561	537	525	507	490	
265	270	257	253	250	247	246	255	271	276	284	289	295	308	325	353	366	382	404	480	565	580	592	604	632	652	657	679	668	661	653	638	630	618	611	589	563	544	535	518	489	454	477	495	504	517	516	540	554	570	579	599	590	581	
265	270	257	253	250	247	246	255	271	276	284	289	295	308	325	353	366	382	404	480	565	580	592	604	632	652	657	679	686	701	705	
266	275	282	267	272	286	290	296	301	311	322	334	336	362	369	378	393	400	410	415	431	440	450	454	477	495	504	517	516	540	554	570	558	552	538	529	528	520	501	488	483	467	
266	275	282	267	272	286	290	296	301	311	322	334	336	362	369	378	393	400	410	415	431	440	450	454	477	495	504	517	516	540	554	570	579	599	590	581	
273	262	271	276	284	289	295	308	325	353	366	382	404	480	565	580	592	604	632	652	657	679	683	689	694	696	703	
283	285	286	290	296	301	300	299	
283	285	286	290	296	301	311	322	334	336	362	369	378	393	400	410	415	431	440	450	454	477	495	504	517	516	540	554	570	558	552	538	529	528	520	501	488	502	526	555	591	654	662	688	675	663	641	629	648	643	636	646	667	670	673	664	
287	317	304	395	404	382	366	353	325	314	
287	317	304	395	404	382	366	353	360	374	376	
287	317	304	395	404	480	565	580	592	604	632	652	657	679	668	661	653	638	630	618	611	589	563	544	535	518	489	454	477	495	504	517	516	540	554	570	579	599	624	628	650	
288	305	318	324	327	336	362	369	378	393	400	410	415	431	440	450	454	477	495	504	517	516	540	554	570	558	552	538	529	528	520	501	488	502	526	508	484	474	473	487	492	478	468	
288	305	318	324	327	336	362	369	378	393	398	416	425	446	451	459	463	476	
292	269	304	395	404	480	565	580	592	604	632	652	657	679	683	689	694	696	707	715	721	
294	312	320	302	295	308	325	353	366	382	404	480	565	580	592	604	632	652	657	679	668	661	653	638	630	618	611	589	563	544	535	518	489	454	450	440	431	415	410	400	393	378	369	362	336	334	341	346	358	356	
294	312	320	302	295	308	325	353	366	382	404	480	565	580	592	604	632	652	657	679	668	661	653	638	630	618	611	589	563	544	535	518	489	454	477	495	504	517	516	540	554	570	558	552	538	529	528	520	501	488	502	526	555	591	654	662	688	675	663	641	629	648	643	636	646	659	672	674	665	658	647	637	631	626	
294	312	320	302	295	308	325	353	366	382	404	480	565	580	592	604	632	652	657	679	668	661	653	638	630	618	611	589	563	544	535	518	489	454	477	495	504	517	516	540	554	570	558	552	538	529	528	520	501	488	502	526	555	591	654	662	688	675	684	
299	300	301	311	322	334	336	362	369	378	393	400	410	415	431	440	450	454	477	495	504	517	516	540	554	570	558	552	547	556	
309	293	303	297	277	276	284	289	295	308	325	353	366	382	404	480	565	605	
310	313	307	315	323	329	337	355	350	386	377	
316	319	308	325	353	366	382	404	480	565	580	592	604	632	652	657	679	683	689	698	
331	335	320	302	295	308	325	353	366	382	404	480	565	580	592	604	632	652	657	679	668	661	653	642	633	627	620	584	571	562	542	521	496	475	
331	335	320	302	295	308	325	353	366	382	404	480	565	580	592	604	632	652	657	679	668	661	653	638	630	618	611	589	563	544	535	518	489	454	477	472	491	
331	335	320	302	295	308	325	353	366	382	404	480	565	580	572	
333	332	344	357	368	380	383	389	403	387	360	353	366	382	404	480	565	580	592	604	632	652	657	679	668	661	653	642	633	627	620	584	571	562	542	521	496	486	
333	332	344	357	368	380	383	389	403	387	360	353	366	382	404	480	565	580	592	604	632	652	657	679	668	661	653	638	630	618	611	589	563	544	535	518	489	454	477	495	504	517	516	540	554	570	558	552	538	529	528	520	501	488	502	526	575	582	614	
351	339	353	366	382	404	480	565	580	592	604	632	652	657	679	668	661	653	638	630	618	611	589	563	544	535	518	489	454	477	495	504	517	516	540	554	570	558	552	538	529	528	520	501	488	502	526	555	591	654	662	688	675	663	641	629	648	643	636	646	659	672	674	665	681	687	
354	348	338	319	308	325	353	366	382	404	480	565	580	592	604	632	652	657	679	668	661	656	
361	365	358	346	341	334	336	362	369	378	393	400	410	415	431	440	450	454	489	518	535	544	563	589	611	618	630	638	653	661	668	679	657	652	632	604	592	580	565	480	404	382	366	353	325	308	295	302	320	335	359	363	
361	365	358	346	341	334	336	362	369	378	393	400	410	415	431	440	450	454	489	518	535	544	563	589	611	618	630	638	653	661	668	679	657	652	632	604	592	580	565	574	583	594	
363	359	335	320	302	295	308	325	353	366	382	404	480	565	580	592	604	632	652	657	679	668	661	653	638	630	618	611	589	563	544	535	518	489	454	450	440	431	415	410	400	393	398	416	425	446	451	464	497	509	500	
367	348	338	319	308	325	353	366	382	404	480	565	580	592	604	632	652	657	679	683	677	
370	371	358	346	341	334	336	362	369	378	393	400	410	415	431	440	450	454	477	495	504	517	516	540	554	570	558	552	538	529	528	520	501	488	502	526	508	484	474	473	487	479	466	
370	371	358	346	341	334	336	362	369	378	393	400	410	415	431	440	450	454	489	518	535	544	563	589	611	618	630	638	653	661	668	679	657	652	632	604	592	580	565	480	404	382	366	353	360	387	403	389	411	414	435	453	471	499	513	524	546	557	564	576	606	625	621	612	607	
370	371	358	346	341	334	336	362	369	378	393	400	410	415	431	440	450	454	477	495	504	517	516	540	554	570	558	552	538	529	528	520	501	488	502	526	575	582	593	666	
375	395	404	480	565	580	592	604	632	652	657	679	668	661	653	638	630	618	611	589	563	544	535	518	489	454	477	495	504	517	516	540	554	570	558	552	538	529	528	520	501	488	502	526	555	591	654	662	688	675	663	641	629	622	
377	386	350	355	337	329	346	341	334	336	362	369	378	393	400	410	415	431	440	450	454	477	495	504	517	516	540	554	570	579	599	624	628	623	613	
379	394	398	393	400	410	415	431	440	450	454	477	495	504	517	516	540	554	570	558	552	547	545	551	
379	394	398	393	400	410	415	431	440	450	454	477	495	504	517	516	540	554	570	558	552	538	529	528	520	501	488	502	526	575	582	614	
390	388	359	335	320	302	295	308	325	353	366	382	404	480	565	580	592	604	632	652	657	679	668	661	653	638	630	618	611	589	563	544	535	518	489	454	477	495	504	517	516	540	554	570	579	599	590	581	
396	399	407	420	427	434	439	451	446	425	416	398	393	400	410	415	431	440	450	454	489	518	535	544	563	589	611	618	630	638	653	661	668	679	657	652	632	604	592	580	565	480	404	382	366	353	360	387	403	389	411	414	435	453	471	499	513	524	546	553	
402	442	432	422	403	387	360	353	366	382	404	480	565	580	592	604	632	652	657	679	668	661	653	638	630	618	611	608	
405	420	427	434	439	451	446	425	416	398	393	400	410	415	431	440	450	454	477	495	504	517	516	540	554	570	558	552	538	529	528	520	501	488	502	526	555	591	654	662	688	675	663	641	629	648	643	636	646	659	672	674	665	658	647	637	631	626	
405	420	427	434	439	451	446	425	416	398	393	400	410	415	431	440	450	454	489	518	535	544	563	589	611	618	630	638	653	661	668	679	683	689	694	696	707	715	721	
408	394	398	393	400	410	415	431	440	450	454	477	495	504	517	516	540	554	570	558	552	538	529	528	520	501	488	502	526	555	591	654	662	688	675	663	641	629	648	643	636	646	659	672	674	680	695	691	697	711	719	
413	409	401	397	392	378	393	400	410	415	431	440	450	454	477	495	504	517	516	540	554	570	558	552	538	529	528	520	501	488	502	526	508	484	474	473	487	492	478	468	
421	417	412	409	401	397	392	378	393	400	410	415	431	440	450	454	477	495	504	517	516	540	554	570	558	552	538	529	528	520	501	488	502	526	575	651	
428	438	457	465	488	502	526	508	484	474	473	487	479	455	436	
429	437	460	481	470	449	439	451	446	425	416	398	393	400	410	415	431	440	450	454	489	518	535	544	563	589	611	618	630	638	653	661	668	679	683	689	694	696	707	715	714	710	718	
430	423	410	415	431	440	450	454	489	518	535	544	563	589	559	
430	423	410	415	431	440	450	454	477	495	504	517	516	540	554	570	558	552	538	529	528	520	501	488	502	526	555	591	654	662	688	693	704	716	712	
433	443	440	450	454	489	518	535	544	563	589	611	618	630	638	653	661	668	679	683	689	694	696	703	
436	455	479	487	473	474	484	508	526	502	488	501	520	528	529	538	552	558	570	554	540	516	517	504	495	477	454	489	518	535	544	563	589	611	618	630	638	653	661	668	679	657	652	632	604	592	580	565	480	404	382	366	353	360	387	403	422	432	462	
447	441	424	403	387	360	353	366	382	404	480	565	580	592	604	632	652	657	679	668	661	653	638	630	618	611	589	563	544	535	518	489	454	477	495	504	517	516	540	554	570	558	552	538	529	528	520	501	488	502	526	555	591	654	662	688	675	663	641	629	648	643	636	646	667	670	678	
448	469	472	477	454	489	518	535	544	563	589	611	618	630	638	653	661	668	679	657	652	632	604	592	580	565	574	583	594	
452	450	454	489	518	535	544	563	589	611	618	630	638	653	661	656	
461	480	565	580	592	604	632	652	657	679	668	661	653	638	630	618	611	589	563	544	535	518	489	454	477	495	504	517	516	540	554	570	577	595	601	603	600	
462	432	422	403	387	360	353	366	382	404	480	565	580	592	604	632	652	657	679	668	661	653	638	630	618	611	589	563	544	535	518	489	454	477	495	504	517	516	540	554	570	558	552	538	529	528	520	501	488	502	526	575	582	593	588	587	
468	478	492	487	473	474	484	508	526	575	582	593	588	587	
475	496	521	510	498	503	
475	496	521	542	562	571	584	620	627	633	642	653	638	630	618	611	589	563	544	535	518	489	454	477	495	504	517	516	540	554	570	558	552	538	529	528	520	501	488	502	526	508	484	474	473	487	492	506	515	505	531	
475	496	521	542	562	571	584	620	627	633	642	653	661	668	679	683	689	694	696	707	715	714	710	718	
482	419	404	480	565	580	592	604	632	652	657	679	668	661	653	642	633	627	620	584	571	562	542	521	496	486	
486	496	521	542	562	571	584	620	627	633	642	653	638	630	618	611	589	563	544	535	511	
491	472	477	495	504	517	516	540	554	570	579	599	590	578	569	
493	481	470	449	439	451	446	425	416	398	393	400	410	415	431	440	450	454	477	495	504	517	516	540	554	570	558	552	538	529	528	520	501	488	502	526	555	591	654	662	688	675	684	
494	520	528	529	538	552	558	570	577	595	601	603	617	
500	509	497	464	451	446	425	416	398	393	400	410	415	431	440	450	454	477	495	504	517	516	540	554	570	558	552	538	529	528	520	501	488	502	526	555	591	654	662	688	675	684	
511	535	518	489	454	477	495	504	517	516	540	554	570	558	552	538	529	528	520	501	488	502	526	555	591	654	662	688	675	663	641	629	648	643	636	646	659	672	674	665	681	687	
511	535	544	563	589	611	618	630	638	653	661	668	679	686	701	708	717	724	
514	506	492	487	473	474	484	508	526	502	488	501	512	522	527	533	548	532	519	
514	506	492	487	473	474	484	508	526	502	488	501	520	528	529	538	552	558	570	554	540	516	517	504	495	477	454	489	518	535	544	563	589	611	618	630	638	653	661	668	679	657	652	632	634	640	655	669	
530	536	541	538	552	558	570	579	599	590	578	569	
549	542	562	571	584	620	627	633	642	653	638	630	618	611	589	563	544	535	518	489	454	477	495	504	517	539	560	
551	545	547	552	558	570	554	540	516	517	504	495	477	454	489	518	535	544	563	589	611	618	630	638	653	661	668	679	686	701	708	717	724	
553	546	524	513	499	471	453	435	414	411	389	403	387	360	353	366	382	404	480	565	580	592	604	632	634	640	655	669	
553	546	524	513	499	471	453	435	414	411	389	403	387	360	353	366	382	404	480	565	580	592	604	632	652	657	679	668	661	653	638	630	618	611	589	563	544	535	518	489	454	477	495	504	517	516	540	554	570	558	552	538	529	528	520	501	488	502	526	555	591	654	662	688	693	704	706	709	
559	589	563	544	535	518	489	454	477	495	504	517	516	540	554	570	558	552	538	529	528	520	501	488	502	526	555	591	654	662	688	693	704	690	
560	539	517	516	540	554	570	558	552	538	529	528	520	501	488	502	526	555	591	654	662	688	675	663	641	629	648	643	636	646	639	
566	557	546	524	513	499	471	453	435	414	411	389	403	387	360	353	366	382	404	480	565	580	592	604	632	652	657	679	668	661	656	
567	578	590	599	579	570	558	552	538	529	528	520	501	488	502	526	575	582	614	
573	558	570	554	540	516	517	504	495	477	454	489	518	535	544	563	589	611	618	630	638	653	661	668	679	686	701	708	717	724	
581	590	599	579	570	554	540	516	517	504	495	477	454	489	518	535	544	563	589	611	618	630	638	653	661	668	679	686	701	705	
598	586	597	615	595	577	570	558	552	538	529	528	520	501	488	502	526	555	591	654	662	688	675	663	641	629	648	643	636	646	659	672	674	680	695	691	685	692	700	699	
605	565	580	592	604	632	652	657	679	668	661	653	638	630	618	611	589	563	544	535	518	489	454	477	495	504	517	516	540	554	570	558	552	538	529	528	520	501	488	502	526	555	591	654	662	688	675	663	641	629	648	643	636	646	659	672	674	665	660	
608	611	618	630	638	653	661	668	679	683	689	698	
610	612	621	625	606	576	564	557	546	524	513	499	471	453	435	414	411	389	403	387	360	353	366	382	404	480	565	580	592	604	632	652	657	679	668	661	653	638	630	618	611	589	563	544	535	518	489	454	477	495	504	517	516	540	554	570	579	599	624	628	650	
650	628	624	599	579	570	558	552	538	529	528	520	501	488	502	526	555	591	654	662	688	675	663	641	629	648	643	636	646	667	670	673	664	
664	673	670	667	646	636	643	648	629	641	663	675	688	662	654	591	555	526	502	488	501	520	528	529	538	552	558	570	554	540	516	517	504	495	477	454	489	518	535	544	563	589	611	618	630	638	653	661	668	679	657	652	671	
664	673	670	667	646	659	672	674	680	695	691	685	692	700	699	
687	681	665	674	672	659	646	636	643	648	629	641	663	675	688	662	654	591	555	526	502	488	501	520	528	529	538	552	558	570	554	540	516	517	504	495	477	454	489	518	535	544	563	589	611	618	630	638	653	661	668	679	683	689	694	696	707	715	721	
699	700	692	685	691	695	680	674	672	659	646	636	643	648	629	641	663	675	688	693	704	706	709	
718	710	714	715	707	696	694	689	683	679	686	701	708	717	724	
719	711	697	691	695	680	674	672	659	646	636	643	648	629	641	663	675	688	693	704	716	722	
